c 
c G(k,n,p) graph
c graph gen seed     : 17670
c number of vertices : 30
c max number of edges: 500
c number of classes  : 2
c edge density       : 0.400000
c edge probability   : 0.800000
c data structure     : sparse
c
c           Graph Stats
c number of vertices  : 30
c nonisolated vertices: 30
c number of edges     : 183
c edge density        : 0.420690
c max degree          : 15
c avg degree          : 12.20
c min degree          : 9
p col 30 183
e 1 3
e 1 4
e 1 6
e 1 7
e 1 8
e 1 9
e 1 11
e 1 12
e 1 14
e 1 16
e 1 17
e 1 18
e 1 21
e 1 22
e 1 23
e 1 26
e 1 28
e 2 3
e 2 4
e 2 5
e 2 9
e 2 10
e 2 13
e 2 15
e 2 17
e 2 19
e 2 20
e 2 22
e 2 24
e 2 25
e 2 26
e 2 27
e 2 29
e 2 30
e 3 6
e 3 7
e 3 8
e 3 9
e 3 11
e 3 12
e 3 13
e 3 14
e 3 16
e 3 18
e 3 21
e 3 22
e 3 23
e 3 25
e 3 26
e 3 28
e 4 5
e 4 7
e 4 8
e 4 10
e 4 13
e 4 15
e 4 17
e 4 19
e 4 20
e 4 22
e 4 24
e 4 25
e 4 27
e 4 28
e 4 29
e 4 30
e 5 9
e 5 10
e 5 13
e 5 15
e 5 17
e 5 19
e 5 20
e 5 24
e 5 25
e 5 27
e 5 29
e 5 30
e 6 7
e 6 8
e 6 9
e 6 11
e 6 12
e 6 14
e 6 16
e 6 18
e 6 19
e 6 21
e 6 22
e 6 23
e 6 26
e 6 28
e 7 8
e 7 9
e 7 11
e 7 12
e 7 14
e 7 16
e 7 18
e 7 21
e 7 22
e 7 23
e 7 25
e 7 26
e 7 28
e 8 9
e 8 11
e 8 12
e 8 14
e 8 16
e 8 18
e 8 19
e 8 20
e 8 21
e 8 22
e 8 23
e 8 26
e 8 28
e 9 11
e 9 12
e 9 14
e 9 16
e 9 18
e 9 21
e 9 22
e 9 23
e 9 26
e 9 28
e 10 13
e 10 14
e 10 15
e 10 16
e 10 17
e 10 19
e 10 20
e 10 24
e 10 25
e 10 27
e 10 28
e 10 29
e 10 30
e 11 12
e 11 14
e 11 16
e 11 17
e 11 18
e 11 21
e 11 22
e 11 23
e 11 26
e 11 28
e 11 29
e 12 13
e 12 14
e 12 16
e 12 18
e 12 21
e 12 22
e 12 23
e 12 26
e 12 28
e 13 15
e 13 17
e 13 19
e 13 20
e 13 23
e 13 24
e 13 25
e 13 27
e 13 29
e 13 30
e 14 15
e 14 16
e 14 18
e 14 20
e 14 21
e 14 22
e 14 23
e 14 24
e 14 26
e 14 28
e 14 30
e 15 17
e 15 19
e 15 20
e 15 24
e 15 25
e 15 27
e 15 28
e 15 29
e 15 30
e 16 17
e 16 18
e 16 21
e 16 22
e 16 23
e 16 26
e 16 28
e 17 19
e 17 20
e 17 21
e 17 23
e 17 24
e 17 25
e 17 27
e 17 29
e 17 30
e 18 19
e 18 21
e 18 22
e 18 23
e 18 24
e 18 26
e 18 28
e 19 20
e 19 22
e 19 24
e 19 25
e 19 27
e 19 29
e 19 30
e 20 24
e 20 25
e 20 27
e 20 28
e 20 29
e 20 30
e 21 22
e 21 23
e 21 26
e 21 27
e 21 28
e 22 23
e 22 24
e 22 26
e 22 28
e 23 26
e 23 28
e 24 25
e 24 26
e 24 27
e 24 29
e 24 30
e 25 27
e 25 28
e 25 29
e 25 30
e 26 28
e 26 29
e 27 29
e 27 30
e 29 30
